outputs/case_222.model.txt
violate_article_82_2 = False
violate_article_80_3 = False
centralized_clearing_at_designated_clearinghouse = True
violate_article_3_2_exception = False
violate_article_64 = False
not_store_documents = False
violate_article_65_1 = False
not_announce_documents = False
violate_article_97_1_1 = False
violate_article_85_1 = False
refuse_investigation = False
not_report_documents = False
violate_article_66_1 = False
violate_order_82_3 = True
violate_order_56_5 = False
violate_article_105 = False
violate_article_104_2 = False
violate_order_8_2 = False
violate_article_10_1 = False
violate_clearinghouse_article_55 = False
violate_order_45_2_post = False
violate_article_70_1 = False
violate_order_85_2 = False
violate_article_84_2_pre = False
violate_article_57_1 = False
overdue_not_submit_documents = False
violate_article_97_1_3 = False
violate_article_72_1 = False
refuse_provide_documents = False
violate_article_73 = False
not_justified_refuse_arrival = False
violate_article_18 = False
not_prepare_documents = False
not_preserve_documents = False
violate_futures_broker_article_79 = False
violate_article_56_4 = False
obstruct_investigation = False
violate_article_5 = False
violate_article_87_1 = False
violate_order_80_4 = False
refuse_inspection = False
violate_article_67 = False
obstruct_inspection = False
evade_investigation = False
violate_article_74 = False
violate_futures_service_article_88 = False
violate_order_93 = False
violate_article_78_1 = False
violate_article_45_2_pre = False
violate_leveraged_trader_article_81 = False
violation_minor = True
violation_7 = False
penalty = False
violation_5 = False
violation_9 = False
violation_6 = False
violation_3 = False
violation_4 = False
violation_2 = True
penalty_applicable = False
violation_8 = False
violation_1 = False